instances/p2/p2_10_8-2.dzn
Alphabet = {A,C,G,T};
ns = 10;
nc = 8;
neighbours = [| I(G),I(T),I(C),I(C),I(T),Null,Null,Null | I(G),Null,Null,Null,Null,Null,Null,Null | I(C),I(C),I(C),I(C),I(T),I(G),I(C),Null | I(C),Null,Null,Null,Null,Null,Null,Null | I(A),Null,Null,Null,Null,Null,Null,Null | I(A),I(C),I(A),Null,Null,Null,Null,Null | I(T),I(C),I(A),I(G),I(G),I(T),I(T),I(A) | I(C),I(T),I(A),I(C),Null,Null,Null,Null | I(T),I(T),Null,Null,Null,Null,Null,Null | I(G),I(T),I(T),I(C),I(A),I(T),Null,Null |];
